50 5
1605
1926
321
2247
963
3210
1284
1605
1926
963
2889
1284
2247
2568
321
2889
963
963
2568
1284
2889
321
2568
1605
1284
1605
2889
321
3210
1926
321
321
2568
321
2568
321
2889
2247
2568
2568
2568
963
642
1605
3210
1605
2889
963
321
642
24334
21567
10462
20267
8114
